50
6567

188 783
900 930
462 790
397 974
732 332
20 14
266 912
274 148
991 872
999 363
44 626
374 799
829 106
167 329
133 414
747 433
455 417
290 60
623 98
58 356
697 973
802 859
552 774
6 917
113 37
765 762
980 949
80 721
759 864
172 485
597 680
674 934
709 163
464 402
723 302
341 685
418 740
279 865
439 731
474 823
760 335
648 684
622 521
208 850
127 574
418 376
684 414
218 555
476 580
927 565
